problems/csplib-prob031/RackConfiguration-models/noch/O2/lingeling/model_4-ilog-solution000001.solution
language Essence 1.3

letting Rack be new type enum {Rack_1, Rack_2, Rack_3, Rack_4, Rack_5}
letting model be function(Rack_1 --> 1, Rack_3 --> 2)
letting plugged be function(Rack_2 --> {}, Rack_1 --> {1, 4}, Rack_3 --> {2, 3}, Rack_5 --> {3}, Rack_4 --> {4})
